c instance by G2
c solution = 0110010
c Known solution cost is 462 
p cnf 7 30
w 84 92 85 53 98 32 18
-4 -1 6 0
-2 -5 1 0
1 6 7 0
3 2 1 0
-3 2 4 0
2 4 1 0
2 -4 3 0
2 -5 1 0
1 3 -5 0
3 -6 -2 0
-7 6 4 0
-1 -7 6 0
-2 6 7 0
-7 5 -6 0
-3 -2 -4 0
-5 1 3 0
-4 1 7 0
-6 -3 -5 0
6 2 -5 0
6 -1 -3 0
-1 -3 -2 0
1 -7 -5 0
-1 -2 4 0
-7 -6 -3 0
-1 -6 5 0
2 -3 -4 0
3 2 -7 0
5 6 -2 0
3 7 5 0
7 -6 2 0
